\* Update_Coloring *\
Minimize
OBJ: lambda_obj
Subject To
_C1: p1 = 1
_C10: p2 - 3 p3 + 2 p4 >= 0
_C100: lambda_2_20_5 - 0.0498370329719 p2 - 2 p3 + p5 >= 2.04983703297
_C101: lambda_2_21_5 + 0.0498370329719 lambda_obj - p2 - 2 p3 + p5
 >= 2.04983703298
_C102: lambda_2_21_5 + 0.0498370329719 lambda_obj - 3 p5 + 2 p6
 >= 2.04983703298
_C103: lambda_2_22_5 - 4 p3 - p7 >= 2
_C104: cost_at_5 - 0.5 lambda_2_11_5 >= 0.5
_C105: - cost_at_5 + lambda_obj >= 0
_C106: - 10000000000 lambda_obj - 10000000000 p2 - 10000000000 p4 + pr_ev_6
 >= -10000000000
_C107: lambda_1_0_6 + 0.950162967028 p2 >= 1.04983703297
_C108: lambda_1_1_6 + 0.0498370329719 lambda_obj + p3 >= 1.04983703298
_C109: lambda_1_2_6 + p2 - 2 p3 + 2 p4 >= 1
_C11: 2 p3 - 5 p4 + 3 p5 >= 0
_C110: lambda_2_00_6 - 0.0996740659438 p2 - p3 >= 2.09967406594
_C111: lambda_2_10_6 + 0.0498370329719 lambda_obj - 1.04983703297 p2
 >= 2.09967406595
_C112: lambda_2_11_6 + 0.0996740659438 lambda_obj - 3 p2 + p4 >= 1.09967406596
_C113: lambda_2_11_6 + 0.0996740659438 lambda_obj - 2 p2 + 2 p3 - 3 p4 + 3 p5
 >= 0.0996740659638
_C114: lambda_2_20_6 - 0.0498370329719 p2 - 2 p3 + p5 >= 2.04983703297
_C115: lambda_2_21_6 + 0.0498370329719 lambda_obj - p2 - 2 p3 + p5
 >= 2.04983703298
_C116: lambda_2_21_6 + 0.0498370329719 lambda_obj - 3 p5 + 2 p6
 >= 2.04983703298
_C117: lambda_2_22_6 - 4 p3 - p7 >= 2
_C118: cost_at_6 - lambda_1_2_6 >= 1
_C119: - cost_at_6 + lambda_obj >= 0
_C12: 2 p3 - 2 p4 - 4 p5 + 4 p6 >= 0
_C120: - 10000000000 lambda_obj + pr_ev_7 >= -10000000000
_C121: lambda_1_0_7 + 0.950162967028 p2 >= 1.04983703297
_C122: lambda_1_1_7 + 0.0498370329719 lambda_obj + p3 >= 1.04983703298
_C123: lambda_1_2_7 + p2 - 2 p3 + 2 p4 >= 1
_C124: lambda_2_00_7 - 0.0996740659438 p2 - p3 >= 2.09967406594
_C125: lambda_2_10_7 + 0.0498370329719 lambda_obj - 1.04983703297 p2
 >= 2.09967406595
_C126: lambda_2_11_7 + 0.0996740659438 lambda_obj - 3 p2 + p4 >= 1.09967406596
_C127: lambda_2_11_7 + 0.0996740659438 lambda_obj - 2 p2 + 2 p3 - 3 p4 + 3 p5
 >= 0.0996740659638
_C128: lambda_2_20_7 - 0.0498370329719 p2 - 2 p3 + p5 >= 2.04983703297
_C129: lambda_2_21_7 + 0.0498370329719 lambda_obj - p2 - 2 p3 + p5
 >= 2.04983703298
_C13: 2 p3 - 2 p4 - 5 p6 + 5 p7 >= 0
_C130: lambda_2_21_7 + 0.0498370329719 lambda_obj - 3 p5 + 2 p6
 >= 2.04983703298
_C131: lambda_2_22_7 - 4 p3 - p7 >= 2
_C132: cost_at_7 - 0.5 lambda_2_20_7 >= 0.5
_C133: - cost_at_7 + lambda_obj >= 0
_C134: - 10000000000 lambda_obj + pr_ev_8 >= -10000000000
_C135: lambda_1_0_8 + 0.950162967028 p2 >= 1.04983703297
_C136: lambda_1_1_8 + 0.0498370329719 lambda_obj + p3 >= 1.04983703298
_C137: lambda_1_2_8 + p2 - 2 p3 + 2 p4 >= 1
_C138: lambda_2_00_8 - 0.0996740659438 p2 - p3 >= 2.09967406594
_C139: lambda_2_10_8 + 0.0498370329719 lambda_obj - 1.04983703297 p2
 >= 2.09967406595
_C14: p4 - 2 p5 + p6 >= 0
_C140: lambda_2_11_8 + 0.0996740659438 lambda_obj - 3 p2 + p4 >= 1.09967406596
_C141: lambda_2_11_8 + 0.0996740659438 lambda_obj - 2 p2 + 2 p3 - 3 p4 + 3 p5
 >= 0.0996740659638
_C142: lambda_2_20_8 - 0.0498370329719 p2 - 2 p3 + p5 >= 2.04983703297
_C143: lambda_2_21_8 + 0.0498370329719 lambda_obj - p2 - 2 p3 + p5
 >= 2.04983703298
_C144: lambda_2_21_8 + 0.0498370329719 lambda_obj - 3 p5 + 2 p6
 >= 2.04983703298
_C145: lambda_2_22_8 - 4 p3 - p7 >= 2
_C146: cost_at_8 - 0.5 lambda_2_21_8 >= 0.5
_C147: - cost_at_8 + lambda_obj >= 0
_C148: - 10000000000 lambda_obj + pr_ev_9 >= -10000000000
_C149: lambda_1_0_9 + 0.950162967028 p2 >= 1.04983703297
_C15: p5 - 2 p6 + p7 >= 0
_C150: lambda_1_1_9 + 0.0498370329719 lambda_obj + p3 >= 1.04983703298
_C151: lambda_1_2_9 + p2 - 2 p3 + 2 p4 >= 1
_C152: lambda_2_00_9 - 0.0996740659438 p2 - p3 >= 2.09967406594
_C153: lambda_2_10_9 + 0.0498370329719 lambda_obj - 1.04983703297 p2
 >= 2.09967406595
_C154: lambda_2_11_9 + 0.0996740659438 lambda_obj - 3 p2 + p4 >= 1.09967406596
_C155: lambda_2_11_9 + 0.0996740659438 lambda_obj - 2 p2 + 2 p3 - 3 p4 + 3 p5
 >= 0.0996740659638
_C156: lambda_2_20_9 - 0.0498370329719 p2 - 2 p3 + p5 >= 2.04983703297
_C157: lambda_2_21_9 + 0.0498370329719 lambda_obj - p2 - 2 p3 + p5
 >= 2.04983703298
_C158: lambda_2_21_9 + 0.0498370329719 lambda_obj - 3 p5 + 2 p6
 >= 2.04983703298
_C159: lambda_2_22_9 - 4 p3 - p7 >= 2
_C16: 0.315789473684 p2 >= 0.0498370329719
_C160: cost_at_9 - 0.5 lambda_2_22_9 >= 0.5
_C161: - cost_at_9 + lambda_obj >= 0
_C17: - p1 + p2 <= 0
_C18: - p2 + p3 <= 0
_C19: - p3 + p4 <= 0
_C2: p2 <= 0.333333333333
_C20: - p4 + p5 <= 0
_C21: - p5 + p6 <= 0
_C22: - 10000000000 lambda_obj - 20000000000 p2 + pr_ev_0 >= -10000000000
_C23: lambda_1_0_0 + 0.950162967028 p2 >= 1.04983703297
_C24: lambda_1_1_0 + 0.0498370329719 lambda_obj + p3 >= 1.04983703298
_C25: lambda_1_2_0 + p2 - 2 p3 + 2 p4 >= 1
_C26: lambda_2_00_0 - 0.0996740659438 p2 - p3 >= 2.09967406594
_C27: lambda_2_10_0 + 0.0498370329719 lambda_obj - 1.04983703297 p2
 >= 2.09967406595
_C28: lambda_2_11_0 + 0.0996740659438 lambda_obj - 3 p2 + p4 >= 1.09967406596
_C29: lambda_2_11_0 + 0.0996740659438 lambda_obj - 2 p2 + 2 p3 - 3 p4 + 3 p5
 >= 0.0996740659638
_C3: p7 = 0
_C30: lambda_2_20_0 - 0.0498370329719 p2 - 2 p3 + p5 >= 2.04983703297
_C31: lambda_2_21_0 + 0.0498370329719 lambda_obj - p2 - 2 p3 + p5
 >= 2.04983703298
_C32: lambda_2_21_0 + 0.0498370329719 lambda_obj - 3 p5 + 2 p6
 >= 2.04983703298
_C33: lambda_2_22_0 - 4 p3 - p7 >= 2
_C34: cost_at_0 - lambda_1_0_0 - 4.98370329719e-12 pr_ev_0 >= 1
_C35: - cost_at_0 + lambda_obj >= 0
_C36: - 10000000000 lambda_obj - 10000000000 p2 - 10000000000 p3 + pr_ev_1
 >= -10000000000
_C37: lambda_1_0_1 + 0.950162967028 p2 >= 1.04983703297
_C38: lambda_1_1_1 + 0.0498370329719 lambda_obj + p3 >= 1.04983703298
_C39: lambda_1_2_1 + p2 - 2 p3 + 2 p4 >= 1
_C4: - 0.666666666667 p2 + p3 <= 0
_C40: lambda_2_00_1 - 0.0996740659438 p2 - p3 >= 2.09967406594
_C41: lambda_2_10_1 + 0.0498370329719 lambda_obj - 1.04983703297 p2
 >= 2.09967406595
_C42: lambda_2_11_1 + 0.0996740659438 lambda_obj - 3 p2 + p4 >= 1.09967406596
_C43: lambda_2_11_1 + 0.0996740659438 lambda_obj - 2 p2 + 2 p3 - 3 p4 + 3 p5
 >= 0.0996740659638
_C44: lambda_2_20_1 - 0.0498370329719 p2 - 2 p3 + p5 >= 2.04983703297
_C45: lambda_2_21_1 + 0.0498370329719 lambda_obj - p2 - 2 p3 + p5
 >= 2.04983703298
_C46: lambda_2_21_1 + 0.0498370329719 lambda_obj - 3 p5 + 2 p6
 >= 2.04983703298
_C47: lambda_2_22_1 - 4 p3 - p7 >= 2
_C48: cost_at_1 - lambda_1_1_1 >= 1
_C49: - cost_at_1 + lambda_obj >= 0
_C5: - 0.666666666667 p3 + p4 <= 0
_C50: - 10000000000 lambda_obj - 10000000000 p3 + pr_ev_2 >= -10000000000
_C51: lambda_1_0_2 + 0.950162967028 p2 >= 1.04983703297
_C52: lambda_1_1_2 + 0.0498370329719 lambda_obj + p3 >= 1.04983703298
_C53: lambda_1_2_2 + p2 - 2 p3 + 2 p4 >= 1
_C54: lambda_2_00_2 - 0.0996740659438 p2 - p3 >= 2.09967406594
_C55: lambda_2_10_2 + 0.0498370329719 lambda_obj - 1.04983703297 p2
 >= 2.09967406595
_C56: lambda_2_11_2 + 0.0996740659438 lambda_obj - 3 p2 + p4 >= 1.09967406596
_C57: lambda_2_11_2 + 0.0996740659438 lambda_obj - 2 p2 + 2 p3 - 3 p4 + 3 p5
 >= 0.0996740659638
_C58: lambda_2_20_2 - 0.0498370329719 p2 - 2 p3 + p5 >= 2.04983703297
_C59: lambda_2_21_2 + 0.0498370329719 lambda_obj - p2 - 2 p3 + p5
 >= 2.04983703298
_C6: - 0.666666666667 p4 + p5 <= 0
_C60: lambda_2_21_2 + 0.0498370329719 lambda_obj - 3 p5 + 2 p6
 >= 2.04983703298
_C61: lambda_2_22_2 - 4 p3 - p7 >= 2
_C62: cost_at_2 - 0.5 lambda_2_00_2 - 4.98370329719e-12 pr_ev_2 >= 0.5
_C63: - cost_at_2 + lambda_obj >= 0
_C64: - 10000000000 lambda_obj - 5000000000 p3 - 5000000000 p4 + pr_ev_3
 >= -10000000000
_C65: lambda_1_0_3 + 0.950162967028 p2 >= 1.04983703297
_C66: lambda_1_1_3 + 0.0498370329719 lambda_obj + p3 >= 1.04983703298
_C67: lambda_1_2_3 + p2 - 2 p3 + 2 p4 >= 1
_C68: lambda_2_00_3 - 0.0996740659438 p2 - p3 >= 2.09967406594
_C69: lambda_2_10_3 + 0.0498370329719 lambda_obj - 1.04983703297 p2
 >= 2.09967406595
_C7: - 0.666666666667 p5 + p6 <= 0
_C70: lambda_2_11_3 + 0.0996740659438 lambda_obj - 3 p2 + p4 >= 1.09967406596
_C71: lambda_2_11_3 + 0.0996740659438 lambda_obj - 2 p2 + 2 p3 - 3 p4 + 3 p5
 >= 0.0996740659638
_C72: lambda_2_20_3 - 0.0498370329719 p2 - 2 p3 + p5 >= 2.04983703297
_C73: lambda_2_21_3 + 0.0498370329719 lambda_obj - p2 - 2 p3 + p5
 >= 2.04983703298
_C74: lambda_2_21_3 + 0.0498370329719 lambda_obj - 3 p5 + 2 p6
 >= 2.04983703298
_C75: lambda_2_22_3 - 4 p3 - p7 >= 2
_C76: cost_at_3 - 0.5 lambda_2_10_3 - 2.4918516486e-12 pr_ev_3 >= 0.5
_C77: - cost_at_3 + lambda_obj >= 0
_C78: - 10000000000 lambda_obj - 5000000000 p3 - 5000000000 p4 + pr_ev_4
 >= -10000000000
_C79: lambda_1_0_4 + 0.950162967028 p2 >= 1.04983703297
_C8: - 0.666666666667 p6 + p7 <= 0
_C80: lambda_1_1_4 + 0.0498370329719 lambda_obj + p3 >= 1.04983703298
_C81: lambda_1_2_4 + p2 - 2 p3 + 2 p4 >= 1
_C82: lambda_2_00_4 - 0.0996740659438 p2 - p3 >= 2.09967406594
_C83: lambda_2_10_4 + 0.0498370329719 lambda_obj - 1.04983703297 p2
 >= 2.09967406595
_C84: lambda_2_11_4 + 0.0996740659438 lambda_obj - 3 p2 + p4 >= 1.09967406596
_C85: lambda_2_11_4 + 0.0996740659438 lambda_obj - 2 p2 + 2 p3 - 3 p4 + 3 p5
 >= 0.0996740659638
_C86: lambda_2_20_4 - 0.0498370329719 p2 - 2 p3 + p5 >= 2.04983703297
_C87: lambda_2_21_4 + 0.0498370329719 lambda_obj - p2 - 2 p3 + p5
 >= 2.04983703298
_C88: lambda_2_21_4 + 0.0498370329719 lambda_obj - 3 p5 + 2 p6
 >= 2.04983703298
_C89: lambda_2_22_4 - 4 p3 - p7 >= 2
_C9: - 2 p2 + p3 >= -1
_C90: cost_at_4 - 0.5 lambda_2_10_4 - 2.4918516486e-12 pr_ev_4 >= 0.5
_C91: - cost_at_4 + lambda_obj >= 0
_C92: - 10000000000 lambda_obj - 10000000000 p4 + pr_ev_5 >= -10000000000
_C93: lambda_1_0_5 + 0.950162967028 p2 >= 1.04983703297
_C94: lambda_1_1_5 + 0.0498370329719 lambda_obj + p3 >= 1.04983703298
_C95: lambda_1_2_5 + p2 - 2 p3 + 2 p4 >= 1
_C96: lambda_2_00_5 - 0.0996740659438 p2 - p3 >= 2.09967406594
_C97: lambda_2_10_5 + 0.0498370329719 lambda_obj - 1.04983703297 p2
 >= 2.09967406595
_C98: lambda_2_11_5 + 0.0996740659438 lambda_obj - 3 p2 + p4 >= 1.09967406596
_C99: lambda_2_11_5 + 0.0996740659438 lambda_obj - 2 p2 + 2 p3 - 3 p4 + 3 p5
 >= 0.0996740659638
Bounds
 cost_at_0 free
 cost_at_1 free
 cost_at_2 free
 cost_at_3 free
 cost_at_4 free
 cost_at_5 free
 cost_at_6 free
 cost_at_7 free
 cost_at_8 free
 cost_at_9 free
 1 <= lambda_obj <= 2
 p1 = 1
 p2 <= 1
 p3 <= 1
 p4 <= 1
 p5 <= 1
 p6 <= 1
 p7 <= 1
End
